p edge 50 25
colours 3
e 10 32
e 1 42
e 21 32
e 25 44
e 31 45
e 5 31
e 21 45
e 10 25
e 46 49
e 13 44
e 13 46
e 15 48
e 18 24
e 10 28
e 14 30
e 39 46
e 21 26
e 6 48
e 10 20
e 19 40
e 2 42
e 5 13
e 2 45
e 36 38
e 9 30
